nNurses = 107;
nHours = 37;
minHours = 7;
maxHours = 13;
maxConsec = 13;
maxPresence = 30;
demand = [28, 24, 28, 32, 29, 26, 22, 18, 22, 27, 31, 29, 33, 34, 33, 29, 31, 34, 33, 32, 30, 34, 38, 38, 33, 38, 37, 37, 32, 32, 28, 23, 28, 23, 23, 18, 15];
